************************************************************************
file with basedata            : j901_.bas
initial value random generator: 495578779
************************************************************************
projects                      :  1
jobs (incl. supersource/sink ):  92
horizon                       :  478
RESOURCES
  - renewable                 :  4   R
  - nonrenewable              :  0   N
  - doubly constrained        :  0   D
************************************************************************
PROJECT INFORMATION:
pronr.  #jobs rel.date duedate tardcost  MPM-Time
    1     90      0       88       88       88
************************************************************************
PRECEDENCE RELATIONS:
jobnr.    #modes  #successors   successors
   1        1          3           2   3   4
   2        1          3           5   8  21
   3        1          3          10  18  30
   4        1          3           6  14  20
   5        1          1           9
   6        1          3           7  13  16
   7        1          3          11  12  19
   8        1          1          77
   9        1          1          15
  10        1          1          59
  11        1          1          49
  12        1          3          31  32  39
  13        1          1          24
  14        1          3          25  48  51
  15        1          3          17  41  42
  16        1          2          23  27
  17        1          2          54  58
  18        1          3          19  26  36
  19        1          2          22  83
  20        1          1          70
  21        1          2          33  34
  22        1          1          81
  23        1          2          67  73
  24        1          3          29  56  69
  25        1          2          72  78
  26        1          1          79
  27        1          2          28  61
  28        1          1          38
  29        1          1          35
  30        1          1          46
  31        1          1          44
  32        1          1          56
  33        1          1          50
  34        1          1          40
  35        1          2          37  45
  36        1          1          87
  37        1          1          52
  38        1          1          43
  39        1          3          52  55  62
  40        1          1          60
  41        1          3          66  70  89
  42        1          1          79
  43        1          3          47  68  71
  44        1          2          71  88
  45        1          2          57  59
  46        1          2          60  64
  47        1          1          49
  48        1          1          52
  49        1          1          65
  50        1          1          83
  51        1          1          84
  52        1          1          53
  53        1          1          54
  54        1          1          63
  55        1          1          88
  56        1          2          58  73
  57        1          1          67
  58        1          1          90
  59        1          1          64
  60        1          2          71  76
  61        1          1          86
  62        1          1          75
  63        1          1          64
  64        1          1          67
  65        1          2          75  90
  66        1          2          76  85
  67        1          1          82
  68        1          2          75  89
  69        1          1          74
  70        1          3          80  82  84
  71        1          1          86
  72        1          1          87
  73        1          1          84
  74        1          1          76
  75        1          1          78
  76        1          1          88
  77        1          1          78
  78        1          1          80
  79        1          2          82  86
  80        1          1          87
  81        1          1          85
  82        1          1          83
  83        1          1          85
  84        1          1          91
  85        1          1          90
  86        1          1          89
  87        1          1          91
  88        1          1          91
  89        1          1          92
  90        1          1          92
  91        1          1          92
  92        1          0        
************************************************************************
REQUESTS/DURATIONS:
jobnr. mode duration  R 1  R 2  R 3  R 4
------------------------------------------------------------------------
  1      1     0       0    0    0    0
  2      1     5       1    0    0    0
  3      1     2       3    0    0    0
  4      1     5       0    0    6    0
  5      1     4       9    0    0    0
  6      1     1       0    0    7    0
  7      1     8       0    0    4    0
  8      1     5       0    0    2    0
  9      1     3       0    0    0    9
 10      1    10       0    2    0    0
 11      1     3       4    0    0    0
 12      1    10       0    0    8    0
 13      1     7       0   10    0    0
 14      1     9       0    0    1    0
 15      1     8       9    0    0    0
 16      1     1       0    4    0    0
 17      1     1       0   10    0    0
 18      1     4       7    0    0    0
 19      1     2       9    0    0    0
 20      1     9       0    0    8    0
 21      1     2       0    8    0    0
 22      1     6       0    0    2    0
 23      1     6       0    0    0    4
 24      1     8       3    0    0    0
 25      1     3       0    0    0    2
 26      1     1       0    0    8    0
 27      1     5       2    0    0    0
 28      1     5       9    0    0    0
 29      1     2       0    0    8    0
 30      1     5       0    0   10    0
 31      1     4       0    0    0    5
 32      1     3       0    1    0    0
 33      1     7       7    0    0    0
 34      1     7       4    0    0    0
 35      1     2       0    0    0    9
 36      1     9       5    0    0    0
 37      1     5       2    0    0    0
 38      1     9       0    0    8    0
 39      1     8       1    0    0    0
 40      1     6       0    0    7    0
 41      1     4       0    0    1    0
 42      1     5       4    0    0    0
 43      1     7       0    7    0    0
 44      1     1       2    0    0    0
 45      1     7       0    0    0    9
 46      1     7       0    0    0    9
 47      1     3       8    0    0    0
 48      1     4       0    1    0    0
 49      1     2       4    0    0    0
 50      1     8       0    0    3    0
 51      1     2       0    8    0    0
 52      1     3       0    7    0    0
 53      1     8       0    0    0   10
 54      1     3       2    0    0    0
 55      1     5       0    0    0   10
 56      1     1      10    0    0    0
 57      1    10       0    0    6    0
 58      1     2       0    0    6    0
 59      1     1       0    0    0    7
 60      1     6       0    0    0    5
 61      1     2       7    0    0    0
 62      1     8       0    0    0    1
 63      1     9       0    3    0    0
 64      1     5       0    0    0    2
 65      1     7       0    0    0    3
 66      1     2       9    0    0    0
 67      1     7       9    0    0    0
 68      1     9       4    0    0    0
 69      1     7       0    7    0    0
 70      1     3       0    3    0    0
 71      1    10       0    0    0    8
 72      1     5       0    0    1    0
 73      1     9       0    0    0    3
 74      1     4       2    0    0    0
 75      1    10       0    2    0    0
 76      1     3       2    0    0    0
 77      1     1       0    0    2    0
 78      1     8       0    4    0    0
 79      1     3       0    0    2    0
 80      1     7       6    0    0    0
 81      1     7       5    0    0    0
 82      1     7       0    0    8    0
 83      1     2       0    0    0    1
 84      1     4       0    0    9    0
 85      1     4       0    0    0    5
 86      1     9       0    9    0    0
 87      1     8       7    0    0    0
 88      1    10       6    0    0    0
 89      1     7       0    0   10    0
 90      1     8       2    0    0    0
 91      1     4       0    0    0    5
 92      1     0       0    0    0    0
************************************************************************
RESOURCEAVAILABILITIES:
  R 1  R 2  R 3  R 4
   17   13   15   14
************************************************************************
